EA1710  5.419  3.871  5.502 89.96 90.04 89.62 Sym.group:  221
1.0
    5.416788    -0.131525    -0.044698
    0.119598     3.869337    -0.022719
    0.042542     0.034879     5.502177
  Li   N
   6   2
Direct
    0.536906     0.452927     0.161264 
    0.777494     0.953785     0.902778 
    0.278043     0.953306     0.918807 
    0.036868     0.453113     0.661079 
    0.295015     0.952522     0.419784 
    0.795221     0.952712     0.402547 
    0.536423     0.952709     0.161712 
    0.035968     0.952679     0.661443 
