EA1847  4.744  3.026  2.856 91.77 104.52 89.51 Sym.group:    1
1.0
    4.742751     0.106178    -0.070792
   -0.042324     3.025449    -0.026155
   -0.673448    -0.073578     2.774951
  Li   N
   2   2
Direct
    0.368674     0.762049     0.740965 
    0.864066     0.276600     0.966599 
    0.269405     0.255777     0.210545 
    0.542433     0.254090     0.325938 
