EA113   2.467  2.466 12.140 91.61 95.43 60.03 Sym.group:    1
1.0
    1.227251     2.140649    -0.001813
   -1.240679     2.131567    -0.001100
   -0.799514    -0.854875    12.083809
   C
   4
Direct
    0.900948     0.044010     0.843903 
    0.567469     0.710323     0.843717 
    0.441556     0.268042     0.157227 
    0.108131     0.934650     0.157248 
