EA2029  4.324  4.319  3.824 89.07 90.20 119.90 Sym.group:  191
1.0
    4.323751     0.025673     0.001555
   -2.175017     3.731505    -0.012706
   -0.014987     0.076082     3.823334
  Li   C
   1   6
Direct
    0.325999     0.284206     0.528842 
    0.325309     0.609223     0.024391 
    0.991848     0.942035     0.027510 
    0.659042     0.275716     0.026728 
    0.659152     0.609433     0.026637 
    0.991489     0.275599     0.025312 
    0.325295     0.942268     0.026640 
