EA103   4.300  4.300  7.727 89.81 88.61 60.00 Sym.group:    5
1.0
    4.299831    -0.007392    -0.003148
    2.155992     3.720232     0.001438
    0.192575    -0.085003     7.723890
  Li   C
   1  12
Direct
    0.992149     0.015149     0.001062 
    0.669807     0.330492     0.754606 
    0.003130     0.664197     0.754264 
    0.336251     0.997374     0.754583 
    0.336452     0.664054     0.754491 
    0.003253     0.330508     0.753820 
    0.670187     0.997110     0.754484 
    0.328828     0.667218     0.243915 
    0.995915     0.333607     0.244163 
    0.662464     0.000419     0.244265 
    0.662040     0.333761     0.244348 
    0.995279     0.667323     0.243707 
    0.328513     0.000224     0.244040 
