EA105   3.687  3.681  8.739 91.18 89.87 89.94 Sym.group:  139
1.0
    3.687017    -0.004797    -0.017018
    0.008551     3.680845    -0.000226
    0.060160    -0.180019     8.736572
  Li   C   N
   4   2   4
Direct
    0.505339     0.004747     0.253157 
    0.006274     0.510720     0.252800 
    0.000951     0.500074     0.752428 
    0.501619     0.000738     0.753000 
    0.000961     0.006478     0.003073 
    0.502485     0.499572     0.501896 
    0.003243     0.005385     0.144318 
    0.504400     0.510050     0.360607 
    0.502535     0.490908     0.643188 
    0.000194     0.006733     0.861457 
