EA956   5.271  5.259  5.174 98.42 99.76 98.11 Sym.group:   12
1.0
    5.270653    -0.078335    -0.037298
   -0.664595     5.216848     0.018160
   -0.854786    -0.890092     5.025037
  Li
   7
Direct
    0.933979     0.672621     0.998507 
    0.077465     0.956762     0.569955 
    0.362869     0.528277     0.711693 
    0.505258     0.816304     0.282619 
    0.219668     0.244691     0.141062 
    0.791256     0.386603     0.426174 
    0.648716     0.100510     0.853825 
