EA1755  5.246  4.698  4.758 88.05 95.98 92.27 Sym.group:    2
1.0
    5.245515     0.001870    -0.012075
   -0.188153     4.694385     0.000021
   -0.484545     0.142803     4.730699
   N
   2
Direct
    0.649977     0.949024     0.494291 
    0.851143     0.959561     0.438527 
